
Gurobi 11.0.3 (linux64) logging started Thu Nov 21 12:28:10 2024

Set parameter LogFile to value "/home/yihong/Coding/OR_SUC/SUC_results_bigM100000_thread4/case24_ieee_rts_theta0.5_epsilon0.05_gurobi_seed290000_num_gen100_N_WDR100_load_scaling_factor1_exact_T20quadra_cost.txt"
Set parameter TimeLimit to value 3600
Gurobi Optimizer version 11.0.3 build v11.0.3rc0 (linux64 - "Ubuntu 20.04.6 LTS")

CPU model: AMD EPYC 7532 32-Core Processor, instruction set [SSE2|AVX|AVX2]
Thread count: 64 physical cores, 128 logical processors, using up to 4 threads

Optimize a model with 47983 rows, 25001 columns and 1104482 nonzeros
Model fingerprint: 0x2c6e03d9
Model has 2000 quadratic constraints
Variable types: 22901 continuous, 2100 integer (2100 binary)
Coefficient statistics:
  Matrix range     [1e-07, 1e+05]
  QMatrix range    [2e-03, 8e-03]
  QLMatrix range   [2e-01, 6e+01]
  Objective range  [1e+00, 1e+00]
  Bounds range     [1e+00, 1e+00]
  RHS range        [1e+00, 1e+05]
Presolve removed 39123 rows and 10572 columns
Presolve time: 0.38s
Presolved: 8860 rows, 14429 columns, 49914 nonzeros
Presolved model has 2000 quadratic constraint(s)
Variable types: 12340 continuous, 2089 integer (2089 binary)

Root relaxation: objective 3.940768e+04, 7013 iterations, 0.19 seconds (0.26 work units)

    Nodes    |    Current Node    |     Objective Bounds      |     Work
 Expl Unexpl |  Obj  Depth IntInf | Incumbent    BestBd   Gap | It/Node Time

     0     0 39407.6751    0   33          - 39407.6751      -     -    0s
     0     0 329725.988    0  584          - 329725.988      -     -    1s
     0     0 329959.951    0  594          - 329959.951      -     -    1s
     0     0 563653.450    0  516          - 563653.450      -     -    1s
     0     0 563851.630    0  343          - 563851.630      -     -    1s
     0     0 564101.401    0  278          - 564101.401      -     -    1s
     0     0 564102.344    0  278          - 564102.344      -     -    1s
     0     0 564102.817    0  276          - 564102.817      -     -    1s
     0     0 564103.731    0  276          - 564103.731      -     -    1s
     0     2 564103.731    0  276          - 564103.731      -     -    2s
H  225   354                    564122.64897 564107.295  0.00%  36.8    4s
*  225   354              96    564122.64897 564107.295  0.00%  36.8    4s

Cutting planes:
  Gomory: 2
  Implied bound: 218
  MIR: 160
  Flow cover: 112
  RLT: 4
  Relax-and-lift: 12
  PSD: 1

Explored 373 nodes (30492 simplex iterations) in 4.60 seconds (5.71 work units)
Thread count was 4 (of 128 available processors)

Solution count 2: 564123 564123 

Optimal solution found (tolerance 1.00e-03)
Warning: max constraint violation (5.9844e-07) exceeds tolerance
Best objective 5.641226489697e+05, best bound 5.641072950265e+05, gap 0.0027%
